words_hard_train/7176.qaiger
aag 13 5 0 1 8
2
4
8
16
20
26
6 3 4
10 6 8
12 7 9
14 11 13
18 14 17
22 20 5
24 23 12
26 19 25
i0 1 x2[6]
i1 2 y1[0]
i2 2 y1[1]
i3 1 x2[7]
i4 1 x2[0]
o0 bv[0]
c
simplified
  <
    xor
      1
      1 x2
    subtract
      1 x2
      << 6
        2 y1
