words_hard_train/7176.qaiger.qdimacs
p cnf 13 25
a 8 1 10 0
e 2 3 4 5 6 7 9 11 12 13 0
1 -2 3 0
-1 -3 0
2 -3 0
-3 -4 5 0
3 -5 0
4 -5 0
3 4 6 0
-3 -6 0
-4 -6 0
5 6 7 0
-5 -7 0
-6 -7 0
-7 8 9 0
7 -9 0
-8 -9 0
-10 2 11 0
10 -11 0
-2 -11 0
11 -6 12 0
-11 -12 0
6 -12 0
9 12 13 0
-9 -13 0
-12 -13 0
13 0
